webassembly/ejemplos_dzn/9/folder9_json_55.dzn
TERM = { '.', 's(2)', 'in_1', 'local_0', 'local_1', 'in_2', 'in_4', 'in_3', 's(1)', 's(0)', 'in_0'};
null = '.';
s = 9;
n = 12;
ndeps = 4;
max_registers_sz = 4;
NR = 1;
registers = [|'local_1', 'in_4'|];
dependencies = [|'i32.store8_2', 'i32.load_4', |'i32.store8_2', 'i32.load16_s_5', |'i32.load_4', 'i32.store8_7', |'i32.load16_s_5', 'i32.store8_7'|];
GET_ENUM = { GET1, GET2, GET3, GET4, GET5};
SET_ENUM = { SET1, SET2, SET3, SET4, SET5};
TEE_ENUM = { TEE1, TEE2, TEE3, TEE4, TEE5};
N = 6;
OP = { 'i32.store8_2', 'i32.load_4', 'i32.load16_s_5', 'i32.sub_0', 'i32.store8_7', 'local.get_0' };
in_ops = [2, 1, 1, 2, 2, 0 ];
out_ops = [0, 1, 1, 1, 0, 1 ];
in1 = ['local_1', 'in_1', 's(0)', 's(1)', 's(2)', '.' ];
in2 = ['local_0', '.', '.', 'in_2', 'in_3', '.' ];
in3 = ['.', '.', '.', '.', '.', '.' ];
out1 = ['.', 's(0)', 's(1)', 's(2)', '.', 'local_0' ];
out2 = ['.', '.', '.', '.', '.', '.' ];
out3 = ['.', '.', '.', '.', '.', '.' ];
comm = [false, false, false, false, false, false ];
gas = [1, 1, 1, 1, 1, 1 ];
sz = [1, 1, 1, 1, 1, 1 ];
stor = [true, false, false, false, true, false ];
lb = [ 1, 1, 1, 1, 1, 1 ];
ub = [ 9, 9, 9, 9, 9, 9 ];
startstack = [ 'in_0', 'in_1', 'in_2', 'in_3', 'in_4', null, null, null, null, null, null, null ];
endstack = [ 'in_4', null, null, null, null, null, null, null, null, null, null, null ];
